n_res = 4;
rcap = [27, 30, 118, 112];
rtype = [1, 1, 2, 2];
n_tasks = 18;
modes = [ {1, 2, 3}, {4, 5, 6}, {7, 8, 9}, {10, 11, 12}, {13, 14, 15}, {16, 17, 18}, {19, 20, 21}, {22, 23, 24}, {25, 26, 27}, {28, 29, 30}, {31, 32, 33}, {34, 35, 36}, {37, 38, 39}, {40, 41, 42}, {43, 44, 45}, {46, 47, 48}, {49, 50, 51}, {52, 53, 54} ];
succ = [ {6, 7, 12}, {4, 5}, {5, 6}, {7, 11}, {12, 14, 18}, {9, 10}, {8, 9, 13}, {10, 14}, {16}, {15, 17}, {13, 18}, {13}, {17}, {16, 17}, {16, 18}, {}, {}, {} ];
n_opt = 54;
dur = [6, 6, 7, 2, 7, 9, 2, 4, 7, 2, 5, 9, 1, 2, 9, 4, 5, 8, 5, 5, 5, 2, 10, 10, 1, 2, 6, 6, 6, 9, 5, 7, 7, 7, 8, 10, 2, 5, 7, 1, 4, 7, 2, 4, 6, 5, 6, 9, 2, 8, 10, 3, 9, 10];
rreq = [|  4,  3,  2,  5,  5,  4,  6,  6,  6,  6,  4,  3,  9,  8,  8,  8,  6,  5,  5,  4,  5,  9,  9,  9,  5,  4,  2,  7,  6,  3,  9,  6,  5,  5,  5,  5,  8,  8,  6,  6,  6,  2, 10,  6,  4,  9,  9,  7,  9,  9,  8,  3,  3,  2
        | 10,  8,  8,  6,  5,  5,  4,  3,  3, 10,  8,  5, 10, 10, 10,  8,  8,  7,  1,  6,  4,  9,  9,  8,  3,  3,  2,  4,  7,  3,  8,  8,  7,  6,  5,  3,  7,  5,  4,  8,  7,  6,  6,  4,  3,  5,  3,  3,  3,  3,  2,  1,  1,  1
        |  5,  7,  2,  6,  6,  4,  6,  5,  4,  8,  6,  6,  9,  6,  6,  6,  6,  6,  8, 10,  5,  9,  6,  7, 10,  9,  7,  3,  3,  2,  7,  3,  6,  3,  3,  3,  5,  5,  4,  8,  6,  5,  2,  2,  1,  7,  6,  6,  6,  6,  2,  6,  4,  3
        |  9,  8,  8,  2,  2,  2,  2,  2,  1, 10,  9,  9,  4,  3,  1,  9,  8,  8,  7,  9,  8,  8,  6,  5,  7,  5,  3,  6,  6,  6,  4,  1,  2, 10,  7,  2,  5,  5,  5,  6,  4,  3, 10,  5,  4,  5,  4,  4,  2,  1,  1,  4,  4,  4 |];
